\* Problem: Unknown *\

Maximize
 obj: + 10 Variable_1 + 10 Variable_2 + 10 Variable_3 + 10 Variable_4

Subject To
 Constraint_2: + 10 Variable_1 >= 0
 Constraint_3: + 10 Variable_2 <= 100
 Constraint_4: - ~r_4 = 0

Bounds
 0 <= ~r_4 <= 100
 Variable_1 free
 -Inf <= Variable_3 <= 100
 0 <= Variable_4 <= 100

End
